% Instance for pentominoes model generated using https://github.com/zayenz/minizinc-pentominoes-generator
% Instance generated for board size 5 with 20 tiles using 17 as seed
% Generated board
%    6bd44
%    kklli
%    5ce38
%    792gh
%    199fj

size = 5;
tiles = 20;
expressions = [
    "( ([2 3 4 5 6 7 8 9 10 11 12 13 14 15 16 17 18 19 20 21]* 1{1} [2 3 4 5 6 7 8 9 10 11 12 13 14 15 16 17 18 19 20 21]*) )",
    "( ([1 3 4 5 6 7 8 9 10 11 12 13 14 15 16 17 18 19 20 21]* 2{1} [1 3 4 5 6 7 8 9 10 11 12 13 14 15 16 17 18 19 20 21]*) )",
    "( ([1 2 4 5 6 7 8 9 10 11 12 13 14 15 16 17 18 19 20 21]* 3{1} [1 2 4 5 6 7 8 9 10 11 12 13 14 15 16 17 18 19 20 21]*) )",
    "( ([1 2 3 5 6 7 8 9 10 11 12 13 14 15 16 17 18 19 20 21]* 4{2} [1 2 3 5 6 7 8 9 10 11 12 13 14 15 16 17 18 19 20 21]*) | ([1 2 3 5 6 7 8 9 10 11 12 13 14 15 16 17 18 19 20 21]* 4{1} [1 2 3 5 6 7 8 9 10 11 12 13 14 15 16 17 18 19 20 21] [1 2 3 5 6 7 8 9 10 11 12 13 14 15 16 17 18 19 20 21]{4} 4{1} [1 2 3 5 6 7 8 9 10 11 12 13 14 15 16 17 18 19 20 21]*) | ([1 2 3 5 6 7 8 9 10 11 12 13 14 15 16 17 18 19 20 21]* 4{1} [1 2 3 5 6 7 8 9 10 11 12 13 14 15 16 17 18 19 20 21]{4} [1 2 3 5 6 7 8 9 10 11 12 13 14 15 16 17 18 19 20 21] 4{1} [1 2 3 5 6 7 8 9 10 11 12 13 14 15 16 17 18 19 20 21]*) )",
    "( ([1 2 3 4 6 7 8 9 10 11 12 13 14 15 16 17 18 19 20 21]* 5{1} [1 2 3 4 6 7 8 9 10 11 12 13 14 15 16 17 18 19 20 21]*) )",
    "( ([1 2 3 4 5 7 8 9 10 11 12 13 14 15 16 17 18 19 20 21]* 6{1} [1 2 3 4 5 7 8 9 10 11 12 13 14 15 16 17 18 19 20 21]*) )",
    "( ([1 2 3 4 5 6 8 9 10 11 12 13 14 15 16 17 18 19 20 21]* 7{1} [1 2 3 4 5 6 8 9 10 11 12 13 14 15 16 17 18 19 20 21]*) )",
    "( ([1 2 3 4 5 6 7 9 10 11 12 13 14 15 16 17 18 19 20 21]* 8{1} [1 2 3 4 5 6 7 9 10 11 12 13 14 15 16 17 18 19 20 21]*) )",
    "( ([1 2 3 4 5 6 7 8 10 11 12 13 14 15 16 17 18 19 20 21]* 9{1} [1 2 3 4 5 6 7 8 10 11 12 13 14 15 16 17 18 19 20 21]{3} [1 2 3 4 5 6 7 8 10 11 12 13 14 15 16 17 18 19 20 21] [1 2 3 4 5 6 7 8 10 11 12 13 14 15 16 17 18 19 20 21]{1} 9{2} [1 2 3 4 5 6 7 8 10 11 12 13 14 15 16 17 18 19 20 21]*) | ([1 2 3 4 5 6 7 8 10 11 12 13 14 15 16 17 18 19 20 21]* 9{2} [1 2 3 4 5 6 7 8 10 11 12 13 14 15 16 17 18 19 20 21]{3} [1 2 3 4 5 6 7 8 10 11 12 13 14 15 16 17 18 19 20 21] 9{1} [1 2 3 4 5 6 7 8 10 11 12 13 14 15 16 17 18 19 20 21]*) | ([1 2 3 4 5 6 7 8 10 11 12 13 14 15 16 17 18 19 20 21]* 9{2} [1 2 3 4 5 6 7 8 10 11 12 13 14 15 16 17 18 19 20 21]{1} [1 2 3 4 5 6 7 8 10 11 12 13 14 15 16 17 18 19 20 21] [1 2 3 4 5 6 7 8 10 11 12 13 14 15 16 17 18 19 20 21]{3} 9{1} [1 2 3 4 5 6 7 8 10 11 12 13 14 15 16 17 18 19 20 21]*) | ([1 2 3 4 5 6 7 8 10 11 12 13 14 15 16 17 18 19 20 21]* 9{1} [1 2 3 4 5 6 7 8 10 11 12 13 14 15 16 17 18 19 20 21] [1 2 3 4 5 6 7 8 10 11 12 13 14 15 16 17 18 19 20 21]{3} 9{2} [1 2 3 4 5 6 7 8 10 11 12 13 14 15 16 17 18 19 20 21]*) | ([1 2 3 4 5 6 7 8 10 11 12 13 14 15 16 17 18 19 20 21]* 9{1} [1 2 3 4 5 6 7 8 10 11 12 13 14 15 16 17 18 19 20 21]{1} [1 2 3 4 5 6 7 8 10 11 12 13 14 15 16 17 18 19 20 21] [1 2 3 4 5 6 7 8 10 11 12 13 14 15 16 17 18 19 20 21]{2} 9{2} [1 2 3 4 5 6 7 8 10 11 12 13 14 15 16 17 18 19 20 21]*) | ([1 2 3 4 5 6 7 8 10 11 12 13 14 15 16 17 18 19 20 21]* 9{2} [1 2 3 4 5 6 7 8 10 11 12 13 14 15 16 17 18 19 20 21] [1 2 3 4 5 6 7 8 10 11 12 13 14 15 16 17 18 19 20 21]{4} 9{1} [1 2 3 4 5 6 7 8 10 11 12 13 14 15 16 17 18 19 20 21]*) | ([1 2 3 4 5 6 7 8 10 11 12 13 14 15 16 17 18 19 20 21]* 9{2} [1 2 3 4 5 6 7 8 10 11 12 13 14 15 16 17 18 19 20 21]{2} [1 2 3 4 5 6 7 8 10 11 12 13 14 15 16 17 18 19 20 21] [1 2 3 4 5 6 7 8 10 11 12 13 14 15 16 17 18 19 20 21]{1} 9{1} [1 2 3 4 5 6 7 8 10 11 12 13 14 15 16 17 18 19 20 21]*) | ([1 2 3 4 5 6 7 8 10 11 12 13 14 15 16 17 18 19 20 21]* 9{1} [1 2 3 4 5 6 7 8 10 11 12 13 14 15 16 17 18 19 20 21]{4} [1 2 3 4 5 6 7 8 10 11 12 13 14 15 16 17 18 19 20 21] 9{2} [1 2 3 4 5 6 7 8 10 11 12 13 14 15 16 17 18 19 20 21]*) )",
    "( ([1 2 3 4 5 6 7 8 9 11 12 13 14 15 16 17 18 19 20 21]* 10{1} [1 2 3 4 5 6 7 8 9 11 12 13 14 15 16 17 18 19 20 21]*) )",
    "( ([1 2 3 4 5 6 7 8 9 10 12 13 14 15 16 17 18 19 20 21]* 11{1} [1 2 3 4 5 6 7 8 9 10 12 13 14 15 16 17 18 19 20 21]*) )",
    "( ([1 2 3 4 5 6 7 8 9 10 11 13 14 15 16 17 18 19 20 21]* 12{1} [1 2 3 4 5 6 7 8 9 10 11 13 14 15 16 17 18 19 20 21]*) )",
    "( ([1 2 3 4 5 6 7 8 9 10 11 12 14 15 16 17 18 19 20 21]* 13{1} [1 2 3 4 5 6 7 8 9 10 11 12 14 15 16 17 18 19 20 21]*) )",
    "( ([1 2 3 4 5 6 7 8 9 10 11 12 13 15 16 17 18 19 20 21]* 14{1} [1 2 3 4 5 6 7 8 9 10 11 12 13 15 16 17 18 19 20 21]*) )",
    "( ([1 2 3 4 5 6 7 8 9 10 11 12 13 14 16 17 18 19 20 21]* 15{1} [1 2 3 4 5 6 7 8 9 10 11 12 13 14 16 17 18 19 20 21]*) )",
    "( ([1 2 3 4 5 6 7 8 9 10 11 12 13 14 15 17 18 19 20 21]* 16{1} [1 2 3 4 5 6 7 8 9 10 11 12 13 14 15 17 18 19 20 21]*) )",
    "( ([1 2 3 4 5 6 7 8 9 10 11 12 13 14 15 16 18 19 20 21]* 17{1} [1 2 3 4 5 6 7 8 9 10 11 12 13 14 15 16 18 19 20 21]*) )",
    "( ([1 2 3 4 5 6 7 8 9 10 11 12 13 14 15 16 17 19 20 21]* 18{1} [1 2 3 4 5 6 7 8 9 10 11 12 13 14 15 16 17 19 20 21]*) )",
    "( ([1 2 3 4 5 6 7 8 9 10 11 12 13 14 15 16 17 18 20 21]* 19{2} [1 2 3 4 5 6 7 8 9 10 11 12 13 14 15 16 17 18 20 21]*) | ([1 2 3 4 5 6 7 8 9 10 11 12 13 14 15 16 17 18 20 21]* 19{1} [1 2 3 4 5 6 7 8 9 10 11 12 13 14 15 16 17 18 20 21]{1} [1 2 3 4 5 6 7 8 9 10 11 12 13 14 15 16 17 18 20 21] [1 2 3 4 5 6 7 8 9 10 11 12 13 14 15 16 17 18 20 21]{3} 19{1} [1 2 3 4 5 6 7 8 9 10 11 12 13 14 15 16 17 18 20 21]*) | ([1 2 3 4 5 6 7 8 9 10 11 12 13 14 15 16 17 18 20 21]* 19{1} [1 2 3 4 5 6 7 8 9 10 11 12 13 14 15 16 17 18 20 21]{3} [1 2 3 4 5 6 7 8 9 10 11 12 13 14 15 16 17 18 20 21] [1 2 3 4 5 6 7 8 9 10 11 12 13 14 15 16 17 18 20 21]{1} 19{1} [1 2 3 4 5 6 7 8 9 10 11 12 13 14 15 16 17 18 20 21]*) )",
    "( ([1 2 3 4 5 6 7 8 9 10 11 12 13 14 15 16 17 18 19 21]* 20{2} [1 2 3 4 5 6 7 8 9 10 11 12 13 14 15 16 17 18 19 21]*) | ([1 2 3 4 5 6 7 8 9 10 11 12 13 14 15 16 17 18 19 21]* 20{1} [1 2 3 4 5 6 7 8 9 10 11 12 13 14 15 16 17 18 19 21]{1} [1 2 3 4 5 6 7 8 9 10 11 12 13 14 15 16 17 18 19 21] [1 2 3 4 5 6 7 8 9 10 11 12 13 14 15 16 17 18 19 21]{3} 20{1} [1 2 3 4 5 6 7 8 9 10 11 12 13 14 15 16 17 18 19 21]*) | ([1 2 3 4 5 6 7 8 9 10 11 12 13 14 15 16 17 18 19 21]* 20{1} [1 2 3 4 5 6 7 8 9 10 11 12 13 14 15 16 17 18 19 21]{3} [1 2 3 4 5 6 7 8 9 10 11 12 13 14 15 16 17 18 19 21] [1 2 3 4 5 6 7 8 9 10 11 12 13 14 15 16 17 18 19 21]{1} 20{1} [1 2 3 4 5 6 7 8 9 10 11 12 13 14 15 16 17 18 19 21]*) )",
];
